Translating instance to solver...

Set parameter TimeLimit to value 28800
Gurobi Optimizer version 11.0.2 build v11.0.2rc0 (linux64 - "Ubuntu 22.04.4 LTS")

CPU model: Intel(R) Xeon(R) Gold 5120 CPU @ 2.20GHz, instruction set [SSE2|AVX|AVX2|AVX512]
Thread count: 28 physical cores, 56 logical processors, using up to 28 threads

Academic license 2463511 - for non-commercial use only - registered to lu___@cefet-rj.br
Optimize a model with 85165 rows, 41523 columns and 194718 nonzeros
Model fingerprint: 0x97512896
Variable types: 1 continuous, 41522 integer (41460 binary)
Coefficient statistics:
  Matrix range     [1e+00, 1e+05]
  Objective range  [3e-01, 8e-01]
  Bounds range     [1e+00, 6e+01]
  RHS range        [1e+00, 6e+01]
Presolve removed 69243 rows and 34979 columns
Presolve time: 1.29s
Presolved: 15922 rows, 6544 columns, 46489 nonzeros
Variable types: 0 continuous, 6544 integer (6483 binary)

Root relaxation: objective 1.288923e+00, 2550 iterations, 0.16 seconds (0.21 work units)

    Nodes    |    Current Node    |     Objective Bounds      |     Work
 Expl Unexpl |  Obj  Depth IntInf | Incumbent    BestBd   Gap | It/Node Time

     0     0    1.28892    0  137          -    1.28892      -     -    2s
H    0     0                       2.8794550    1.28892  55.2%     -    2s
     0     0    1.28892    0  190    2.87946    1.28892  55.2%     -    3s
H    0     0                       1.6735640    1.28892  23.0%     -    3s
     0     0    1.36767    0   91    1.67356    1.36767  18.3%     -    3s
     0     0    1.36767    0   15    1.67356    1.36767  18.3%     -    4s
     0     0    1.36767    0  106    1.67356    1.36767  18.3%     -    5s
     0     0    1.36767    0  162    1.67356    1.36767  18.3%     -    5s
     0     0    1.36767    0   73    1.67356    1.36767  18.3%     -    6s
     0     0    1.36767    0  138    1.67356    1.36767  18.3%     -    7s
     0     0    1.36767    0  139    1.67356    1.36767  18.3%     -    7s
     0     0    1.36767    0  108    1.67356    1.36767  18.3%     -    7s
     0     0    1.36767    0   87    1.67356    1.36767  18.3%     -    7s
     0     0    1.36767    0   11    1.67356    1.36767  18.3%     -    8s
     0     0    1.36767    0  114    1.67356    1.36767  18.3%     -    8s
     0     0    1.36767    0   11    1.67356    1.36767  18.3%     -    9s
     0     0    1.36767    0  115    1.67356    1.36767  18.3%     -    9s
     0     0    1.36767    0   40    1.67356    1.36767  18.3%     -    9s
     0     0    1.36767    0   99    1.67356    1.36767  18.3%     -   10s
     0     0    1.36767    0  144    1.67356    1.36767  18.3%     -   11s
     0     0    1.36767    0   11    1.67356    1.36767  18.3%     -   11s
     0     2    1.36767    0   11    1.67356    1.36767  18.3%     -   12s
    48    37    1.36767    7   78    1.67356    1.36767  18.3%   464   15s
   194   105    1.36767   12   51    1.67356    1.36767  18.3%   352   22s
   779   227    1.46611   21   27    1.67356    1.36767  18.3%   213   25s
   969   251    1.49342   31   76    1.67356    1.36767  18.3%   199   33s
  1358   324    1.41073   11  229    1.67356    1.36767  18.3%   197   35s
  3245   684    1.55923   22  342    1.67356    1.36767  18.3%   178   40s
  5286   899    1.51051   11  125    1.67356    1.36767  18.3%   162   45s
  6909   701    1.50900   30   69    1.67356    1.36938  18.2%   151   52s
  8267    15     cutoff   30         1.67356    1.42553  14.8%   148   55s

Cutting planes:
  Learned: 307
  Gomory: 8
  Cover: 10
  Implied bound: 783
  Clique: 1
  MIR: 185
  StrongCG: 2
  Zero half: 37
  RLT: 77
  Relax-and-lift: 66
  BQP: 8

Explored 8559 nodes (1300959 simplex iterations) in 55.27 seconds (51.47 work units)
Thread count was 28 (of 56 available processors)

Solution count 2: 1.67356 2.87946 

Optimal solution found (tolerance 1.00e-04)
Best objective 1.673564000000e+00, best bound 1.673564000000e+00, gap 0.0000%

Solver Wallclock Time (for this epsilon): 55.271822929382324 s
Python wallclock Time (for this epsilon): 61.3951621055603 s


Total Elapsed Time (since program call): 466.5564935207367 s

Results:

I = 1.6735639999999998 mA
C = 61.0 points
C ~= 24.400000000000002 km^2

Minimum Epsilon for this instance = 10
Maximum Epsilon for this instance = 100

Current Epsilon = 60


Preprocessing Time (for this epsilon): 0.010261297225952148 s


Updated solution vectors:
sol_I = [-0.9176730000000001,-1.223564,-1.367673,-1.367673,-1.367673,-1.6735639999999998]
sol_C = [15.0,20.0,49.0,47.0,56.0,61.0]
sol_eps = [10,20,30,40,50,60]
sol_gap = [0.0,0.0,0.0,3.0375000092952575e-07,1.912499996148398e-07,0.0]
